# Random Circle Problem
param d := 0.05; 
param n := 10; 
param radius := 2.00; 
param v0 := 
1 5.79
2 5.86
3 5.03
4 5.00
5 5.68
6 4.98
7 5.77
8 5.43
9 5.67
10 5.11
;
param cap := 
1 3.46856
2 4.16388
3 4.08897
4 4.77354
5 5.16845
6 0.19811
7 0.70199
8 0.94701
9 2.11751
10 3.00940
;
param x0 := 
1 2.00
2 1.62
3 0.62
4 -0.62
5 -1.62
6 -2.00
7 -1.62
8 -0.62
9 0.62
10 1.62
;
param y0 := 
1 -0.00
2 1.18
3 1.90
4 1.90
5 1.18
6 0.00
7 -1.18
8 -1.90
9 -1.90
10 -1.18
;
